p cnf 200 1110
-101 -28 0
-101 -78 0
-101 41 0
-101 91 0
-101 -44 0
-101 97 0
-101 -55 0
-101 79 0
-101 51 0
-101 -2 0
101 28 78 -41 -91 44 -97 55 -79 -51 2 0
-102 41 0
-102 78 0
-102 70 0
-102 -18 0
-102 -55 0
-102 -71 0
-102 67 0
-102 -73 0
-102 93 0
-102 84 0
102 -41 -78 -70 18 55 71 -67 73 -93 -84 0
-103 -65 0
-103 30 0
-103 78 0
-103 -39 0
-103 -34 0
-103 -58 0
-103 27 0
-103 -43 0
-103 -23 0
-103 47 0
103 65 -30 -78 39 34 58 -27 43 23 -47 0
-104 -3 0
-104 2 0
-104 4 0
-104 60 0
-104 43 0
-104 -26 0
-104 -71 0
-104 84 0
-104 -100 0
-104 98 0
104 3 -2 -4 -60 -43 26 71 -84 100 -98 0
-105 7 0
-105 92 0
-105 13 0
-105 3 0
-105 18 0
-105 -26 0
-105 88 0
-105 1 0
-105 -25 0
-105 90 0
105 -7 -92 -13 -3 -18 26 -88 -1 25 -90 0
-106 54 0
-106 2 0
-106 8 0
-106 62 0
-106 -1 0
-106 -51 0
-106 41 0
-106 71 0
-106 -63 0
-106 76 0
106 -54 -2 -8 -62 1 51 -41 -71 63 -76 0
-107 67 0
-107 -72 0
-107 -94 0
-107 46 0
-107 -77 0
-107 -95 0
-107 -19 0
-107 -35 0
-107 -74 0
-107 -17 0
107 -67 72 94 -46 77 95 19 35 74 17 0
-108 97 0
-108 -28 0
-108 79 0
-108 -8 0
-108 64 0
-108 -36 0
-108 55 0
-108 76 0
-108 52 0
-108 75 0
108 -97 28 -79 8 -64 36 -55 -76 -52 -75 0
-109 28 0
-109 8 0
-109 45 0
-109 71 0
-109 -4 0
-109 -12 0
-109 -43 0
-109 -59 0
-109 99 0
-109 62 0
109 -28 -8 -45 -71 4 12 43 59 -99 -62 0
-110 -89 0
-110 64 0
-110 -52 0
-110 35 0
-110 -31 0
-110 2 0
-110 26 0
-110 -21 0
-110 -25 0
-110 -29 0
110 89 -64 52 -35 31 -2 -26 21 25 29 0
101 102 103 104 105 106 107 108 109 110 0
-111 -91 0
-111 -48 0
-111 36 0
-111 -95 0
-111 11 0
-111 29 0
-111 -17 0
-111 -35 0
-111 84 0
-111 71 0
111 91 48 -36 95 -11 -29 17 35 -84 -71 0
-112 -60 0
-112 65 0
-112 27 0
-112 -35 0
-112 63 0
-112 -55 0
-112 -9 0
-112 -72 0
-112 100 0
-112 20 0
112 60 -65 -27 35 -63 55 9 72 -100 -20 0
-113 -11 0
-113 -92 0
-113 -12 0
-113 17 0
-113 -46 0
-113 -84 0
-113 -78 0
-113 -45 0
-113 -82 0
-113 -10 0
113 11 92 12 -17 46 84 78 45 82 10 0
-114 7 0
-114 91 0
-114 -37 0
-114 6 0
-114 33 0
-114 -97 0
-114 -59 0
-114 95 0
-114 -70 0
-114 -68 0
114 -7 -91 37 -6 -33 97 59 -95 70 68 0
-115 33 0
-115 -48 0
-115 -95 0
-115 -88 0
-115 -55 0
-115 18 0
-115 -62 0
-115 7 0
-115 79 0
-115 -86 0
115 -33 48 95 88 55 -18 62 -7 -79 86 0
-116 99 0
-116 83 0
-116 -13 0
-116 73 0
-116 40 0
-116 -97 0
-116 91 0
-116 49 0
-116 78 0
-116 94 0
116 -99 -83 13 -73 -40 97 -91 -49 -78 -94 0
-117 1 0
-117 23 0
-117 -78 0
-117 38 0
-117 -79 0
-117 60 0
-117 -85 0
-117 21 0
-117 -99 0
-117 -94 0
117 -1 -23 78 -38 79 -60 85 -21 99 94 0
-118 -25 0
-118 -41 0
-118 -6 0
-118 34 0
-118 -12 0
-118 -47 0
-118 -32 0
-118 -29 0
-118 -56 0
-118 -46 0
118 25 41 6 -34 12 47 32 29 56 46 0
-119 -6 0
-119 -29 0
-119 12 0
-119 53 0
-119 -48 0
-119 -23 0
-119 -39 0
-119 22 0
-119 -25 0
-119 24 0
119 6 29 -12 -53 48 23 39 -22 25 -24 0
-120 -81 0
-120 -99 0
-120 -40 0
-120 -37 0
-120 -59 0
-120 94 0
-120 -34 0
-120 57 0
-120 35 0
-120 -54 0
120 81 99 40 37 59 -94 34 -57 -35 54 0
111 112 113 114 115 116 117 118 119 120 0
-121 80 0
-121 58 0
-121 31 0
-121 -60 0
-121 100 0
-121 28 0
-121 52 0
-121 -76 0
-121 4 0
-121 95 0
121 -80 -58 -31 60 -100 -28 -52 76 -4 -95 0
-122 -39 0
-122 -33 0
-122 -2 0
-122 16 0
-122 -87 0
-122 -24 0
-122 90 0
-122 52 0
-122 -49 0
-122 -5 0
122 39 33 2 -16 87 24 -90 -52 49 5 0
-123 -46 0
-123 -81 0
-123 3 0
-123 -69 0
-123 34 0
-123 24 0
-123 -62 0
-123 8 0
-123 58 0
-123 22 0
123 46 81 -3 69 -34 -24 62 -8 -58 -22 0
-124 33 0
-124 78 0
-124 -84 0
-124 53 0
-124 -73 0
-124 -72 0
-124 13 0
-124 82 0
-124 -64 0
-124 -41 0
124 -33 -78 84 -53 73 72 -13 -82 64 41 0
-125 16 0
-125 86 0
-125 -44 0
-125 87 0
-125 80 0
-125 -83 0
-125 -23 0
-125 65 0
-125 -24 0
-125 -17 0
125 -16 -86 44 -87 -80 83 23 -65 24 17 0
-126 66 0
-126 -13 0
-126 83 0
-126 35 0
-126 68 0
-126 -81 0
-126 -4 0
-126 -57 0
-126 -10 0
-126 -90 0
126 -66 13 -83 -35 -68 81 4 57 10 90 0
-127 20 0
-127 90 0
-127 54 0
-127 86 0
-127 32 0
-127 -29 0
-127 66 0
-127 47 0
-127 -30 0
-127 -89 0
127 -20 -90 -54 -86 -32 29 -66 -47 30 89 0
-128 75 0
-128 15 0
-128 -96 0
-128 -42 0
-128 76 0
-128 53 0
-128 -14 0
-128 11 0
-128 58 0
-128 71 0
128 -75 -15 96 42 -76 -53 14 -11 -58 -71 0
-129 95 0
-129 68 0
-129 39 0
-129 36 0
-129 -60 0
-129 -87 0
-129 21 0
-129 -76 0
-129 18 0
-129 40 0
129 -95 -68 -39 -36 60 87 -21 76 -18 -40 0
-130 -97 0
-130 44 0
-130 -31 0
-130 -15 0
-130 66 0
-130 -81 0
-130 9 0
-130 6 0
-130 5 0
-130 -26 0
130 97 -44 31 15 -66 81 -9 -6 -5 26 0
121 122 123 124 125 126 127 128 129 130 0
-131 -92 0
-131 3 0
-131 31 0
-131 68 0
-131 -94 0
-131 -88 0
-131 -36 0
-131 -19 0
-131 -57 0
-131 32 0
131 92 -3 -31 -68 94 88 36 19 57 -32 0
-132 -67 0
-132 53 0
-132 33 0
-132 -29 0
-132 -31 0
-132 -81 0
-132 -20 0
-132 -21 0
-132 -25 0
-132 78 0
132 67 -53 -33 29 31 81 20 21 25 -78 0
-133 -58 0
-133 -9 0
-133 -3 0
-133 -33 0
-133 -57 0
-133 -98 0
-133 -47 0
-133 -74 0
-133 92 0
-133 89 0
133 58 9 3 33 57 98 47 74 -92 -89 0
-134 38 0
-134 -78 0
-134 -5 0
-134 -20 0
-134 31 0
-134 -47 0
-134 80 0
-134 25 0
-134 -51 0
-134 -17 0
134 -38 78 5 20 -31 47 -80 -25 51 17 0
-135 56 0
-135 55 0
-135 36 0
-135 92 0
-135 -71 0
-135 33 0
-135 -76 0
-135 -93 0
-135 -32 0
-135 17 0
135 -56 -55 -36 -92 71 -33 76 93 32 -17 0
-136 52 0
-136 -44 0
-136 85 0
-136 59 0
-136 16 0
-136 -61 0
-136 38 0
-136 56 0
-136 -79 0
-136 1 0
136 -52 44 -85 -59 -16 61 -38 -56 79 -1 0
-137 -38 0
-137 -42 0
-137 32 0
-137 83 0
-137 43 0
-137 -63 0
-137 58 0
-137 -61 0
-137 52 0
-137 -23 0
137 38 42 -32 -83 -43 63 -58 61 -52 23 0
-138 29 0
-138 -90 0
-138 84 0
-138 -68 0
-138 95 0
-138 -75 0
-138 -73 0
-138 27 0
-138 39 0
-138 4 0
138 -29 90 -84 68 -95 75 73 -27 -39 -4 0
-139 -79 0
-139 98 0
-139 -70 0
-139 18 0
-139 49 0
-139 90 0
-139 67 0
-139 56 0
-139 88 0
-139 -31 0
139 79 -98 70 -18 -49 -90 -67 -56 -88 31 0
-140 -25 0
-140 32 0
-140 9 0
-140 81 0
-140 -93 0
-140 44 0
-140 53 0
-140 -67 0
-140 23 0
-140 -51 0
140 25 -32 -9 -81 93 -44 -53 67 -23 51 0
131 132 133 134 135 136 137 138 139 140 0
-141 -71 0
-141 63 0
-141 -22 0
-141 42 0
-141 78 0
-141 31 0
-141 75 0
-141 36 0
-141 -10 0
-141 49 0
141 71 -63 22 -42 -78 -31 -75 -36 10 -49 0
-142 -63 0
-142 81 0
-142 -17 0
-142 46 0
-142 -76 0
-142 -89 0
-142 -96 0
-142 35 0
-142 -80 0
-142 60 0
142 63 -81 17 -46 76 89 96 -35 80 -60 0
-143 82 0
-143 -87 0
-143 70 0
-143 19 0
-143 -38 0
-143 9 0
-143 -57 0
-143 89 0
-143 -27 0
-143 -28 0
143 -82 87 -70 -19 38 -9 57 -89 27 28 0
-144 -78 0
-144 48 0
-144 47 0
-144 44 0
-144 20 0
-144 -4 0
-144 43 0
-144 35 0
-144 -63 0
-144 28 0
144 78 -48 -47 -44 -20 4 -43 -35 63 -28 0
-145 -18 0
-145 46 0
-145 -64 0
-145 -74 0
-145 -55 0
-145 91 0
-145 88 0
-145 85 0
-145 50 0
-145 27 0
145 18 -46 64 74 55 -91 -88 -85 -50 -27 0
-146 10 0
-146 -78 0
-146 95 0
-146 15 0
-146 -76 0
-146 96 0
-146 -8 0
-146 29 0
-146 58 0
-146 90 0
146 -10 78 -95 -15 76 -96 8 -29 -58 -90 0
-147 -89 0
-147 -97 0
-147 -60 0
-147 -10 0
-147 64 0
-147 94 0
-147 -38 0
-147 -65 0
-147 -32 0
-147 -76 0
147 89 97 60 10 -64 -94 38 65 32 76 0
-148 59 0
-148 -72 0
-148 67 0
-148 -81 0
-148 88 0
-148 -18 0
-148 -14 0
-148 50 0
-148 -43 0
-148 -100 0
148 -59 72 -67 81 -88 18 14 -50 43 100 0
-149 61 0
-149 60 0
-149 -71 0
-149 -23 0
-149 81 0
-149 -53 0
-149 -76 0
-149 78 0
-149 51 0
-149 62 0
149 -61 -60 71 23 -81 53 76 -78 -51 -62 0
-150 61 0
-150 -42 0
-150 -72 0
-150 49 0
-150 -48 0
-150 39 0
-150 89 0
-150 26 0
-150 -41 0
-150 74 0
150 -61 42 72 -49 48 -39 -89 -26 41 -74 0
141 142 143 144 145 146 147 148 149 150 0
-151 27 0
-151 -11 0
-151 15 0
-151 72 0
-151 30 0
-151 -74 0
-151 54 0
-151 -93 0
-151 34 0
-151 -66 0
151 -27 11 -15 -72 -30 74 -54 93 -34 66 0
-152 -37 0
-152 83 0
-152 1 0
-152 32 0
-152 63 0
-152 66 0
-152 -52 0
-152 -18 0
-152 -73 0
-152 -53 0
152 37 -83 -1 -32 -63 -66 52 18 73 53 0
-153 16 0
-153 55 0
-153 -54 0
-153 7 0
-153 -56 0
-153 -87 0
-153 82 0
-153 41 0
-153 -99 0
-153 66 0
153 -16 -55 54 -7 56 87 -82 -41 99 -66 0
-154 -48 0
-154 94 0
-154 60 0
-154 10 0
-154 -97 0
-154 37 0
-154 90 0
-154 -70 0
-154 41 0
-154 -59 0
154 48 -94 -60 -10 97 -37 -90 70 -41 59 0
-155 -32 0
-155 75 0
-155 -51 0
-155 -96 0
-155 84 0
-155 83 0
-155 3 0
-155 29 0
-155 -5 0
-155 2 0
155 32 -75 51 96 -84 -83 -3 -29 5 -2 0
-156 -25 0
-156 36 0
-156 -74 0
-156 19 0
-156 77 0
-156 -76 0
-156 -22 0
-156 5 0
-156 -81 0
-156 -96 0
156 25 -36 74 -19 -77 76 22 -5 81 96 0
-157 52 0
-157 -80 0
-157 -84 0
-157 -37 0
-157 22 0
-157 -38 0
-157 -11 0
-157 -58 0
-157 -55 0
-157 -92 0
157 -52 80 84 37 -22 38 11 58 55 92 0
-158 -60 0
-158 -21 0
-158 -67 0
-158 -69 0
-158 44 0
-158 -13 0
-158 63 0
-158 8 0
-158 62 0
-158 -7 0
158 60 21 67 69 -44 13 -63 -8 -62 7 0
-159 75 0
-159 -71 0
-159 28 0
-159 87 0
-159 -14 0
-159 36 0
-159 -38 0
-159 -90 0
-159 49 0
-159 63 0
159 -75 71 -28 -87 14 -36 38 90 -49 -63 0
-160 -100 0
-160 63 0
-160 -50 0
-160 91 0
-160 -58 0
-160 47 0
-160 20 0
-160 -84 0
-160 67 0
-160 -95 0
160 100 -63 50 -91 58 -47 -20 84 -67 95 0
151 152 153 154 155 156 157 158 159 160 0
-161 -50 0
-161 -6 0
-161 -4 0
-161 -67 0
-161 -16 0
-161 47 0
-161 20 0
-161 12 0
-161 2 0
-161 -53 0
161 50 6 4 67 16 -47 -20 -12 -2 53 0
-162 4 0
-162 -9 0
-162 52 0
-162 53 0
-162 -61 0
-162 -25 0
-162 80 0
-162 -59 0
-162 37 0
-162 -13 0
162 -4 9 -52 -53 61 25 -80 59 -37 13 0
-163 -68 0
-163 11 0
-163 73 0
-163 82 0
-163 54 0
-163 -60 0
-163 -97 0
-163 -48 0
-163 -65 0
-163 -21 0
163 68 -11 -73 -82 -54 60 97 48 65 21 0
-164 -12 0
-164 -71 0
-164 -26 0
-164 14 0
-164 62 0
-164 -11 0
-164 -84 0
-164 33 0
-164 -79 0
-164 45 0
164 12 71 26 -14 -62 11 84 -33 79 -45 0
-165 20 0
-165 -39 0
-165 35 0
-165 78 0
-165 -23 0
-165 -86 0
-165 74 0
-165 -12 0
-165 -46 0
-165 -38 0
165 -20 39 -35 -78 23 86 -74 12 46 38 0
-166 -95 0
-166 33 0
-166 85 0
-166 -45 0
-166 30 0
-166 -41 0
-166 22 0
-166 69 0
-166 3 0
-166 -37 0
166 95 -33 -85 45 -30 41 -22 -69 -3 37 0
-167 -80 0
-167 79 0
-167 -42 0
-167 8 0
-167 -35 0
-167 59 0
-167 55 0
-167 -47 0
-167 -68 0
-167 32 0
167 80 -79 42 -8 35 -59 -55 47 68 -32 0
-168 -45 0
-168 10 0
-168 83 0
-168 46 0
-168 -77 0
-168 -22 0
-168 -14 0
-168 -72 0
-168 -69 0
-168 -55 0
168 45 -10 -83 -46 77 22 14 72 69 55 0
-169 97 0
-169 -26 0
-169 -23 0
-169 -89 0
-169 34 0
-169 25 0
-169 13 0
-169 64 0
-169 67 0
-169 71 0
169 -97 26 23 89 -34 -25 -13 -64 -67 -71 0
-170 -12 0
-170 46 0
-170 -88 0
-170 54 0
-170 7 0
-170 -97 0
-170 -68 0
-170 98 0
-170 75 0
-170 35 0
170 12 -46 88 -54 -7 97 68 -98 -75 -35 0
161 162 163 164 165 166 167 168 169 170 0
-171 82 0
-171 -14 0
-171 5 0
-171 -87 0
-171 -60 0
-171 38 0
-171 -77 0
-171 65 0
-171 -39 0
-171 -51 0
171 -82 14 -5 87 60 -38 77 -65 39 51 0
-172 -15 0
-172 -25 0
-172 -11 0
-172 -75 0
-172 -33 0
-172 -94 0
-172 -22 0
-172 89 0
-172 69 0
-172 -34 0
172 15 25 11 75 33 94 22 -89 -69 34 0
-173 -68 0
-173 -65 0
-173 -38 0
-173 56 0
-173 -22 0
-173 98 0
-173 -31 0
-173 82 0
-173 -81 0
-173 71 0
173 68 65 38 -56 22 -98 31 -82 81 -71 0
-174 -69 0
-174 -30 0
-174 17 0
-174 -52 0
-174 83 0
-174 15 0
-174 -64 0
-174 -84 0
-174 93 0
-174 51 0
174 69 30 -17 52 -83 -15 64 84 -93 -51 0
-175 46 0
-175 -66 0
-175 100 0
-175 -39 0
-175 -29 0
-175 -86 0
-175 -9 0
-175 4 0
-175 -52 0
-175 26 0
175 -46 66 -100 39 29 86 9 -4 52 -26 0
-176 -19 0
-176 -89 0
-176 -81 0
-176 -7 0
-176 -64 0
-176 72 0
-176 -76 0
-176 68 0
-176 -52 0
-176 12 0
176 19 89 81 7 64 -72 76 -68 52 -12 0
-177 -83 0
-177 75 0
-177 -42 0
-177 -46 0
-177 73 0
-177 80 0
-177 -36 0
-177 54 0
-177 -13 0
-177 -55 0
177 83 -75 42 46 -73 -80 36 -54 13 55 0
-178 80 0
-178 76 0
-178 -11 0
-178 -42 0
-178 -19 0
-178 -73 0
-178 15 0
-178 -26 0
-178 -72 0
-178 9 0
178 -80 -76 11 42 19 73 -15 26 72 -9 0
-179 -6 0
-179 77 0
-179 -71 0
-179 -12 0
-179 -26 0
-179 67 0
-179 60 0
-179 87 0
-179 75 0
-179 -47 0
179 6 -77 71 12 26 -67 -60 -87 -75 47 0
-180 87 0
-180 -78 0
-180 -37 0
-180 -32 0
-180 34 0
-180 -61 0
-180 74 0
-180 66 0
-180 -8 0
-180 33 0
180 -87 78 37 32 -34 61 -74 -66 8 -33 0
171 172 173 174 175 176 177 178 179 180 0
-181 42 0
-181 74 0
-181 -16 0
-181 44 0
-181 -76 0
-181 39 0
-181 -43 0
-181 -47 0
-181 -23 0
-181 -51 0
181 -42 -74 16 -44 76 -39 43 47 23 51 0
-182 30 0
-182 -84 0
-182 13 0
-182 79 0
-182 -8 0
-182 -60 0
-182 -22 0
-182 55 0
-182 53 0
-182 -7 0
182 -30 84 -13 -79 8 60 22 -55 -53 7 0
-183 -24 0
-183 -18 0
-183 -69 0
-183 -93 0
-183 78 0
-183 -76 0
-183 91 0
-183 94 0
-183 15 0
-183 -39 0
183 24 18 69 93 -78 76 -91 -94 -15 39 0
-184 5 0
-184 -55 0
-184 78 0
-184 93 0
-184 36 0
-184 -20 0
-184 29 0
-184 38 0
-184 90 0
-184 -50 0
184 -5 55 -78 -93 -36 20 -29 -38 -90 50 0
-185 83 0
-185 8 0
-185 -10 0
-185 60 0
-185 -4 0
-185 -67 0
-185 23 0
-185 -96 0
-185 62 0
-185 19 0
185 -83 -8 10 -60 4 67 -23 96 -62 -19 0
-186 66 0
-186 97 0
-186 55 0
-186 31 0
-186 -83 0
-186 -4 0
-186 -79 0
-186 -9 0
-186 -29 0
-186 -84 0
186 -66 -97 -55 -31 83 4 79 9 29 84 0
-187 -97 0
-187 39 0
-187 -12 0
-187 15 0
-187 -34 0
-187 -85 0
-187 -47 0
-187 -100 0
-187 91 0
-187 -9 0
187 97 -39 12 -15 34 85 47 100 -91 9 0
-188 64 0
-188 61 0
-188 5 0
-188 -49 0
-188 36 0
-188 44 0
-188 -20 0
-188 -62 0
-188 -90 0
-188 8 0
188 -64 -61 -5 49 -36 -44 20 62 90 -8 0
-189 2 0
-189 -40 0
-189 -99 0
-189 -31 0
-189 63 0
-189 10 0
-189 -96 0
-189 -58 0
-189 21 0
-189 -36 0
189 -2 40 99 31 -63 -10 96 58 -21 36 0
-190 37 0
-190 41 0
-190 46 0
-190 -24 0
-190 -73 0
-190 -26 0
-190 -35 0
-190 -27 0
-190 45 0
-190 48 0
190 -37 -41 -46 24 73 26 35 27 -45 -48 0
181 182 183 184 185 186 187 188 189 190 0
-191 90 0
-191 -37 0
-191 67 0
-191 92 0
-191 -53 0
-191 -82 0
-191 60 0
-191 10 0
-191 -52 0
-191 89 0
191 -90 37 -67 -92 53 82 -60 -10 52 -89 0
-192 36 0
-192 56 0
-192 58 0
-192 96 0
-192 -54 0
-192 -14 0
-192 8 0
-192 -87 0
-192 42 0
-192 -78 0
192 -36 -56 -58 -96 54 14 -8 87 -42 78 0
-193 -15 0
-193 -94 0
-193 -60 0
-193 -34 0
-193 45 0
-193 -42 0
-193 24 0
-193 44 0
-193 -1 0
-193 -53 0
193 15 94 60 34 -45 42 -24 -44 1 53 0
-194 4 0
-194 -59 0
-194 49 0
-194 -44 0
-194 -47 0
-194 57 0
-194 -41 0
-194 -100 0
-194 5 0
-194 -60 0
194 -4 59 -49 44 47 -57 41 100 -5 60 0
-195 67 0
-195 52 0
-195 -34 0
-195 63 0
-195 98 0
-195 19 0
-195 -42 0
-195 -31 0
-195 -12 0
-195 -80 0
195 -67 -52 34 -63 -98 -19 42 31 12 80 0
-196 40 0
-196 68 0
-196 70 0
-196 22 0
-196 -48 0
-196 -96 0
-196 -84 0
-196 -6 0
-196 -83 0
-196 -88 0
196 -40 -68 -70 -22 48 96 84 6 83 88 0
-197 -27 0
-197 66 0
-197 15 0
-197 8 0
-197 13 0
-197 97 0
-197 29 0
-197 53 0
-197 69 0
-197 -56 0
197 27 -66 -15 -8 -13 -97 -29 -53 -69 56 0
-198 77 0
-198 -70 0
-198 -42 0
-198 60 0
-198 -14 0
-198 -69 0
-198 26 0
-198 -51 0
-198 48 0
-198 28 0
198 -77 70 42 -60 14 69 -26 51 -48 -28 0
-199 -97 0
-199 74 0
-199 -47 0
-199 2 0
-199 -8 0
-199 -69 0
-199 52 0
-199 85 0
-199 -36 0
-199 15 0
199 97 -74 47 -2 8 69 -52 -85 36 -15 0
-200 -72 0
-200 28 0
-200 -46 0
-200 -25 0
-200 -41 0
-200 40 0
-200 50 0
-200 -64 0
-200 -62 0
-200 37 0
200 72 -28 46 25 41 -40 -50 64 62 -37 0
191 192 193 194 195 196 197 198 199 200 0
